"modified by Otti
2 =mdim
2 =nblocks
{2, 2}
1.000000007687914749e+00 1.000000003094314138e+00
1 1 1 1 1.280949535841085419e-08
1 1 2 2 1.590380933804433768e-08
1 2 1 1 2.000000020593151184e+00
1 2 1 2 2.000000006188628277e+00
1 2 2 2 2.000000023687464434e+00
2 1 1 1 5.657234707603219448e+00
2 1 2 2 4.342765292396779664e+00
2 2 1 1 2.236748197130824067e+00
2 2 1 2 -2.236747836546340462e+00
2 2 2 2 2.236747511355743345e+00
